91,101
11,21
53,63
28,38
69,79
51,61
74,84
66,76
88,98
51,61
35,45
18,28
33,43
57,67
83,93
64,74
67,77
62,72
94,104
92,102
94,104
47,57
41,51
79,89
20,30
22,32
89,99
46,56
28,38
10,20
24,34
42,52
23,33
82,92
45,55
71,81
26,36
52,62
19,29
70,80
50,60
71,81
44,54
30,40
76,86
88,98
87,97
40,50
43,53
72,82

970
95
112
25
725
5
265
195
0
61
